
        $ From http://www.csplib.org/Problems/prob009/data/helmut.pdf
        $ Problem number 68
        $ Sequence length : 25
        language ESSENCE' 1.0
        letting sizemaster be 280
        letting sizes be sequence(2,3,7,8,14,18,30,36,37,39,44,50,52,54,56,60,63,64,65,72,75,78,79,96,106)
        